p tw 98 111
1 2
2 13
3 4
4 5
5 6
6 7
7 8
8 9
9 97
10 11
11 12
12 14
12 15
13 24
14 15
15 16
16 17
17 18
17 19
18 19
19 20
20 21
20 23
21 22
22 97
23 25
24 35
24 10
25 26
26 27
27 28
28 29
29 30
29 33
30 31
31 32
32 97
33 34
34 36
35 46
36 37
37 38
37 40
38 39
39 40
40 41
41 42
42 43
42 45
43 44
44 45
45 47
46 57
47 48
48 49
49 50
49 54
50 51
51 52
51 54
52 53
53 54
53 58
54 55
55 56
56 70
57 68
58 59
59 60
60 61
60 70
61 62
62 63
63 64
64 65
65 66
65 70
66 67
67 69
68 79
69 97
70 71
71 72
72 73
72 97
73 74
74 75
75 76
76 77
77 78
78 80
79 90
80 81
80 85
81 82
82 83
83 84
84 97
85 86
86 87
87 88
88 89
89 91
90 3
91 92
92 93
93 94
94 95
95 96
96 97
97 98
